p cnf 123 721
-1 0
-2 0
-7 0
-2 -3 -12 0
2 3 -12 0
-2 3 12 0
2 -3 12 0
-2 -4 -13 0
2 4 -13 0
-2 4 13 0
2 -4 13 0
-2 -5 -14 0
2 5 -14 0
-2 5 14 0
2 -5 14 0
-2 -6 -15 0
2 6 -15 0
-2 6 15 0
2 -6 15 0
-3 -4 -16 0
3 4 -16 0
-3 4 16 0
3 -4 16 0
-3 -5 -17 0
3 5 -17 0
-3 5 17 0
3 -5 17 0
-3 -6 -18 0
3 6 -18 0
-3 6 18 0
3 -6 18 0
-4 -5 -19 0
4 5 -19 0
-4 5 19 0
4 -5 19 0
-4 -6 -20 0
4 6 -20 0
-4 6 20 0
4 -6 20 0
-5 -6 -21 0
5 6 -21 0
-5 6 21 0
5 -6 21 0
-7 -8 -22 0
7 8 -22 0
-7 8 22 0
7 -8 22 0
-7 -9 -23 0
7 9 -23 0
-7 9 23 0
7 -9 23 0
-7 -10 -24 0
7 10 -24 0
-7 10 24 0
7 -10 24 0
-7 -11 -25 0
7 11 -25 0
-7 11 25 0
7 -11 25 0
-8 -9 -26 0
8 9 -26 0
-8 9 26 0
8 -9 26 0
-8 -10 -27 0
8 10 -27 0
-8 10 27 0
8 -10 27 0
-8 -11 -28 0
8 11 -28 0
-8 11 28 0
8 -11 28 0
-9 -10 -29 0
9 10 -29 0
-9 10 29 0
9 -10 29 0
-9 -11 -30 0
9 11 -30 0
-9 11 30 0
9 -11 30 0
-10 -11 -31 0
10 11 -31 0
-10 11 31 0
10 -11 31 0
31 21 29 -32 0
31 21 -29 32 0
31 -21 29 32 0
31 -21 -29 -32 0
-31 21 29 32 0
-31 21 -29 -32 0
-31 -21 29 -32 0
-31 -21 -29 32 0
-31 -21 33 0
-31 -29 33 0
-21 -29 33 0
31 21 -33 0
31 29 -33 0
21 29 -33 0
32 19 26 -34 0
32 19 -26 34 0
32 -19 26 34 0
32 -19 -26 -34 0
-32 19 26 34 0
-32 19 -26 -34 0
-32 -19 26 -34 0
-32 -19 -26 34 0
-32 -19 35 0
-32 -26 35 0
-19 -26 35 0
32 19 -35 0
32 26 -35 0
19 26 -35 0
34 16 25 -36 0
34 16 -25 36 0
34 -16 25 36 0
34 -16 -25 -36 0
-34 16 25 36 0
-34 16 -25 -36 0
-34 -16 25 -36 0
-34 -16 -25 36 0
-34 -16 37 0
-34 -25 37 0
-16 -25 37 0
34 16 -37 0
34 25 -37 0
16 25 -37 0
36 15 22 -38 0
36 15 -22 38 0
36 -15 22 38 0
36 -15 -22 -38 0
-36 15 22 38 0
-36 15 -22 -38 0
-36 -15 22 -38 0
-36 -15 -22 38 0
-36 -15 39 0
-36 -22 39 0
-15 -22 39 0
36 15 -39 0
36 22 -39 0
15 22 -39 0
39 37 35 -40 0
39 37 -35 40 0
39 -37 35 40 0
39 -37 -35 -40 0
-39 37 35 40 0
-39 37 -35 -40 0
-39 -37 35 -40 0
-39 -37 -35 40 0
-39 -37 41 0
-39 -35 41 0
-37 -35 41 0
39 37 -41 0
39 35 -41 0
37 35 -41 0
12 38 1 -42 0
12 38 -1 42 0
12 -38 1 42 0
12 -38 -1 -42 0
-12 38 1 42 0
-12 38 -1 -42 0
-12 -38 1 -42 0
-12 -38 -1 42 0
-12 -38 43 0
-12 -1 43 0
-38 -1 43 0
12 38 -43 0
12 1 -43 0
38 1 -43 0
33 40 43 -44 0
33 40 -43 44 0
33 -40 43 44 0
33 -40 -43 -44 0
-33 40 43 44 0
-33 40 -43 -44 0
-33 -40 43 -44 0
-33 -40 -43 44 0
-33 -40 45 0
-33 -43 45 0
-40 -43 45 0
33 40 -45 0
33 43 -45 0
40 43 -45 0
41 1 45 -46 0
41 1 -45 46 0
41 -1 45 46 0
41 -1 -45 -46 0
-41 1 45 46 0
-41 1 -45 -46 0
-41 -1 45 -46 0
-41 -1 -45 46 0
-41 -1 47 0
-41 -45 47 0
-1 -45 47 0
41 1 -47 0
41 45 -47 0
1 45 -47 0
1 47 -48 0
1 -47 48 0
-1 47 -48 0
-1 -47 48 0
-1 49 0
-1 -47 49 0
-1 -47 49 0
1 -49 0
1 47 -49 0
1 47 -49 0
-49 0
-42 0
44 0
46 0
-48 0
30 20 28 -50 0
30 20 -28 50 0
30 -20 28 50 0
30 -20 -28 -50 0
-30 20 28 50 0
-30 20 -28 -50 0
-30 -20 28 -50 0
-30 -20 -28 50 0
-30 -20 51 0
-30 -28 51 0
-20 -28 51 0
30 20 -51 0
30 28 -51 0
20 28 -51 0
50 18 27 -52 0
50 18 -27 52 0
50 -18 27 52 0
50 -18 -27 -52 0
-50 18 27 52 0
-50 18 -27 -52 0
-50 -18 27 -52 0
-50 -18 -27 52 0
-50 -18 53 0
-50 -27 53 0
-18 -27 53 0
50 18 -53 0
50 27 -53 0
18 27 -53 0
52 17 24 -54 0
52 17 -24 54 0
52 -17 24 54 0
52 -17 -24 -54 0
-52 17 24 54 0
-52 17 -24 -54 0
-52 -17 24 -54 0
-52 -17 -24 54 0
-52 -17 55 0
-52 -24 55 0
-17 -24 55 0
52 17 -55 0
52 24 -55 0
17 24 -55 0
54 14 23 -56 0
54 14 -23 56 0
54 -14 23 56 0
54 -14 -23 -56 0
-54 14 23 56 0
-54 14 -23 -56 0
-54 -14 23 -56 0
-54 -14 -23 56 0
-54 -14 57 0
-54 -23 57 0
-14 -23 57 0
54 14 -57 0
54 23 -57 0
14 23 -57 0
57 55 53 -58 0
57 55 -53 58 0
57 -55 53 58 0
57 -55 -53 -58 0
-57 55 53 58 0
-57 55 -53 -58 0
-57 -55 53 -58 0
-57 -55 -53 58 0
-57 -55 59 0
-57 -53 59 0
-55 -53 59 0
57 55 -59 0
57 53 -59 0
55 53 -59 0
13 56 1 -60 0
13 56 -1 60 0
13 -56 1 60 0
13 -56 -1 -60 0
-13 56 1 60 0
-13 56 -1 -60 0
-13 -56 1 -60 0
-13 -56 -1 60 0
-13 -56 61 0
-13 -1 61 0
-56 -1 61 0
13 56 -61 0
13 1 -61 0
56 1 -61 0
51 58 61 -62 0
51 58 -61 62 0
51 -58 61 62 0
51 -58 -61 -62 0
-51 58 61 62 0
-51 58 -61 -62 0
-51 -58 61 -62 0
-51 -58 -61 62 0
-51 -58 63 0
-51 -61 63 0
-58 -61 63 0
51 58 -63 0
51 61 -63 0
58 61 -63 0
59 1 63 -64 0
59 1 -63 64 0
59 -1 63 64 0
59 -1 -63 -64 0
-59 1 63 64 0
-59 1 -63 -64 0
-59 -1 63 -64 0
-59 -1 -63 64 0
-59 -1 65 0
-59 -63 65 0
-1 -63 65 0
59 1 -65 0
59 63 -65 0
1 63 -65 0
1 65 -66 0
1 -65 66 0
-1 65 -66 0
-1 -65 66 0
-1 67 0
-1 -65 67 0
-1 -65 67 0
1 -67 0
1 65 -67 0
1 65 -67 0
-67 0
-60 0
62 0
64 0
-66 0
30 20 28 -68 0
30 20 -28 68 0
30 -20 28 68 0
30 -20 -28 -68 0
-30 20 28 68 0
-30 20 -28 -68 0
-30 -20 28 -68 0
-30 -20 -28 68 0
-30 -20 69 0
-30 -28 69 0
-20 -28 69 0
30 20 -69 0
30 28 -69 0
20 28 -69 0
68 18 27 -70 0
68 18 -27 70 0
68 -18 27 70 0
68 -18 -27 -70 0
-68 18 27 70 0
-68 18 -27 -70 0
-68 -18 27 -70 0
-68 -18 -27 70 0
-68 -18 71 0
-68 -27 71 0
-18 -27 71 0
68 18 -71 0
68 27 -71 0
18 27 -71 0
70 17 24 -72 0
70 17 -24 72 0
70 -17 24 72 0
70 -17 -24 -72 0
-70 17 24 72 0
-70 17 -24 -72 0
-70 -17 24 -72 0
-70 -17 -24 72 0
-70 -17 73 0
-70 -24 73 0
-17 -24 73 0
70 17 -73 0
70 24 -73 0
17 24 -73 0
72 14 23 -74 0
72 14 -23 74 0
72 -14 23 74 0
72 -14 -23 -74 0
-72 14 23 74 0
-72 14 -23 -74 0
-72 -14 23 -74 0
-72 -14 -23 74 0
-72 -14 75 0
-72 -23 75 0
-14 -23 75 0
72 14 -75 0
72 23 -75 0
14 23 -75 0
75 73 71 -76 0
75 73 -71 76 0
75 -73 71 76 0
75 -73 -71 -76 0
-75 73 71 76 0
-75 73 -71 -76 0
-75 -73 71 -76 0
-75 -73 -71 76 0
-75 -73 77 0
-75 -71 77 0
-73 -71 77 0
75 73 -77 0
75 71 -77 0
73 71 -77 0
13 74 1 -78 0
13 74 -1 78 0
13 -74 1 78 0
13 -74 -1 -78 0
-13 74 1 78 0
-13 74 -1 -78 0
-13 -74 1 -78 0
-13 -74 -1 78 0
-13 -74 79 0
-13 -1 79 0
-74 -1 79 0
13 74 -79 0
13 1 -79 0
74 1 -79 0
69 76 79 -80 0
69 76 -79 80 0
69 -76 79 80 0
69 -76 -79 -80 0
-69 76 79 80 0
-69 76 -79 -80 0
-69 -76 79 -80 0
-69 -76 -79 80 0
-69 -76 81 0
-69 -79 81 0
-76 -79 81 0
69 76 -81 0
69 79 -81 0
76 79 -81 0
77 1 81 -82 0
77 1 -81 82 0
77 -1 81 82 0
77 -1 -81 -82 0
-77 1 81 82 0
-77 1 -81 -82 0
-77 -1 81 -82 0
-77 -1 -81 82 0
-77 -1 83 0
-77 -81 83 0
-1 -81 83 0
77 1 -83 0
77 81 -83 0
1 81 -83 0
1 83 -84 0
1 -83 84 0
-1 83 -84 0
-1 -83 84 0
-1 85 0
-1 -83 85 0
-1 -83 85 0
1 -85 0
1 83 -85 0
1 83 -85 0
-85 0
-78 0
80 0
82 0
-84 0
31 21 29 -86 0
31 21 -29 86 0
31 -21 29 86 0
31 -21 -29 -86 0
-31 21 29 86 0
-31 21 -29 -86 0
-31 -21 29 -86 0
-31 -21 -29 86 0
-31 -21 87 0
-31 -29 87 0
-21 -29 87 0
31 21 -87 0
31 29 -87 0
21 29 -87 0
86 19 26 -88 0
86 19 -26 88 0
86 -19 26 88 0
86 -19 -26 -88 0
-86 19 26 88 0
-86 19 -26 -88 0
-86 -19 26 -88 0
-86 -19 -26 88 0
-86 -19 89 0
-86 -26 89 0
-19 -26 89 0
86 19 -89 0
86 26 -89 0
19 26 -89 0
88 16 25 -90 0
88 16 -25 90 0
88 -16 25 90 0
88 -16 -25 -90 0
-88 16 25 90 0
-88 16 -25 -90 0
-88 -16 25 -90 0
-88 -16 -25 90 0
-88 -16 91 0
-88 -25 91 0
-16 -25 91 0
88 16 -91 0
88 25 -91 0
16 25 -91 0
90 15 22 -92 0
90 15 -22 92 0
90 -15 22 92 0
90 -15 -22 -92 0
-90 15 22 92 0
-90 15 -22 -92 0
-90 -15 22 -92 0
-90 -15 -22 92 0
-90 -15 93 0
-90 -22 93 0
-15 -22 93 0
90 15 -93 0
90 22 -93 0
15 22 -93 0
93 91 89 -94 0
93 91 -89 94 0
93 -91 89 94 0
93 -91 -89 -94 0
-93 91 89 94 0
-93 91 -89 -94 0
-93 -91 89 -94 0
-93 -91 -89 94 0
-93 -91 95 0
-93 -89 95 0
-91 -89 95 0
93 91 -95 0
93 89 -95 0
91 89 -95 0
12 92 1 -96 0
12 92 -1 96 0
12 -92 1 96 0
12 -92 -1 -96 0
-12 92 1 96 0
-12 92 -1 -96 0
-12 -92 1 -96 0
-12 -92 -1 96 0
-12 -92 97 0
-12 -1 97 0
-92 -1 97 0
12 92 -97 0
12 1 -97 0
92 1 -97 0
87 94 97 -98 0
87 94 -97 98 0
87 -94 97 98 0
87 -94 -97 -98 0
-87 94 97 98 0
-87 94 -97 -98 0
-87 -94 97 -98 0
-87 -94 -97 98 0
-87 -94 99 0
-87 -97 99 0
-94 -97 99 0
87 94 -99 0
87 97 -99 0
94 97 -99 0
95 1 99 -100 0
95 1 -99 100 0
95 -1 99 100 0
95 -1 -99 -100 0
-95 1 99 100 0
-95 1 -99 -100 0
-95 -1 99 -100 0
-95 -1 -99 100 0
-95 -1 101 0
-95 -99 101 0
-1 -99 101 0
95 1 -101 0
95 99 -101 0
1 99 -101 0
1 101 -102 0
1 -101 102 0
-1 101 -102 0
-1 -101 102 0
-1 103 0
-1 -101 103 0
-1 -101 103 0
1 -103 0
1 101 -103 0
1 101 -103 0
-103 0
-96 0
98 0
100 0
-102 0
6 5 4 -104 0
6 5 -4 104 0
6 -5 4 104 0
6 -5 -4 -104 0
-6 5 4 104 0
-6 5 -4 -104 0
-6 -5 4 -104 0
-6 -5 -4 104 0
-6 -5 105 0
-6 -4 105 0
-5 -4 105 0
6 5 -105 0
6 4 -105 0
5 4 -105 0
104 3 2 -106 0
104 3 -2 106 0
104 -3 2 106 0
104 -3 -2 -106 0
-104 3 2 106 0
-104 3 -2 -106 0
-104 -3 2 -106 0
-104 -3 -2 106 0
-104 -3 107 0
-104 -2 107 0
-3 -2 107 0
104 3 -107 0
104 2 -107 0
3 2 -107 0
106 1 -108 0
106 -1 -108 0
-106 1 108 0
-106 -1 108 0
-106 -1 109 0
-106 -1 109 0
-1 109 0
106 1 -109 0
106 1 -109 0
1 -109 0
105 107 109 -110 0
105 107 -109 110 0
105 -107 109 110 0
105 -107 -109 -110 0
-105 107 109 110 0
-105 107 -109 -110 0
-105 -107 109 -110 0
-105 -107 -109 110 0
-105 -107 111 0
-105 -109 111 0
-107 -109 111 0
105 107 -111 0
105 109 -111 0
107 109 -111 0
1 111 -112 0
1 -111 112 0
-1 111 -112 0
-1 -111 112 0
-1 113 0
-1 -111 113 0
-1 -111 113 0
1 -113 0
1 111 -113 0
1 111 -113 0
-113 0
11 10 9 -114 0
11 10 -9 114 0
11 -10 9 114 0
11 -10 -9 -114 0
-11 10 9 114 0
-11 10 -9 -114 0
-11 -10 9 -114 0
-11 -10 -9 114 0
-11 -10 115 0
-11 -9 115 0
-10 -9 115 0
11 10 -115 0
11 9 -115 0
10 9 -115 0
114 8 7 -116 0
114 8 -7 116 0
114 -8 7 116 0
114 -8 -7 -116 0
-114 8 7 116 0
-114 8 -7 -116 0
-114 -8 7 -116 0
-114 -8 -7 116 0
-114 -8 117 0
-114 -7 117 0
-8 -7 117 0
114 8 -117 0
114 7 -117 0
8 7 -117 0
116 1 -118 0
116 -1 -118 0
-116 1 118 0
-116 -1 118 0
-116 -1 119 0
-116 -1 119 0
-1 119 0
116 1 -119 0
116 1 -119 0
1 -119 0
115 117 119 -120 0
115 117 -119 120 0
115 -117 119 120 0
115 -117 -119 -120 0
-115 117 119 120 0
-115 117 -119 -120 0
-115 -117 119 -120 0
-115 -117 -119 120 0
-115 -117 121 0
-115 -119 121 0
-117 -119 121 0
115 117 -121 0
115 119 -121 0
117 119 -121 0
1 121 -122 0
1 -121 122 0
-1 121 -122 0
-1 -121 122 0
-1 123 0
-1 -121 123 0
-1 -121 123 0
1 -123 0
1 121 -123 0
1 121 -123 0
-123 0
110 0
-112 0
120 0
-122 0
